20	38
0	1	98
0	5	62
0	12	24
0	16	71
0	17	71
1	3	86
1	6	58
1	7	80
1	12	2
1	18	16
2	6	80
2	7	78
2	12	22
2	17	10
3	11	47
3	18	10
4	6	34
4	14	45
4	18	44
5	9	38
5	12	2
5	14	49
5	15	80
6	17	7
7	13	18
7	16	52
7	18	50
8	12	1
8	17	97
10	13	10
11	14	52
12	13	74
12	19	88
13	14	23
13	16	87
14	16	40
14	17	82
18	19	12
